<?xml version = "1.0" standalone="yes"?>
<!-- This file has been generated by DOcplex version 2.23.222  -->
<CPLEXSolution version="1.0">
 <header
   problemName="CVRP"
   objectiveValue="11751.7"
  />
 <variables>
  <variable name="x_0_2" index="1" value="1.00000"/>
  <variable name="x_0_3" index="2" value="1.00000"/>
  <variable name="x_0_5" index="4" value="1.00000"/>
  <variable name="x_0_7" index="6" value="1.00000"/>
  <variable name="x_0_9" index="8" value="1.00000"/>
  <variable name="x_0_11" index="10" value="1.00000"/>
  <variable name="x_0_12" index="11" value="1.00000"/>
  <variable name="x_0_13" index="12" value="1.00000"/>
  <variable name="x_1_0" index="13" value="1.00000"/>
  <variable name="x_2_4" index="29" value="1.00000"/>
  <variable name="x_3_0" index="39" value="1.00000"/>
  <variable name="x_4_0" index="52" value="1.00000"/>
  <variable name="x_5_8" index="72" value="1.00000"/>
  <variable name="x_6_0" index="78" value="1.00000"/>
  <variable name="x_7_0" index="91" value="1.00000"/>
  <variable name="x_8_0" index="104" value="1.00000"/>
  <variable name="x_9_6" index="123" value="1.00000"/>
  <variable name="x_10_1" index="131" value="1.00000"/>
  <variable name="x_11_0" index="143" value="1.00000"/>
  <variable name="x_12_10" index="166" value="1.00000"/>
  <variable name="x_13_0" index="169" value="1.00000"/>
  <variable name="u_1" index="182" value="32.00000"/>
  <variable name="u_2" index="183" value="10.00000"/>
  <variable name="u_3" index="184" value="34.00000"/>
  <variable name="u_4" index="185" value="34.00000"/>
  <variable name="u_5" index="186" value="3.00000"/>
  <variable name="u_6" index="187" value="34.00000"/>
  <variable name="u_7" index="188" value="34.00000"/>
  <variable name="u_8" index="189" value="22.00000"/>
  <variable name="u_9" index="190" value="15.00000"/>
  <variable name="u_10" index="191" value="29.00000"/>
  <variable name="u_11" index="192" value="34.00000"/>
  <variable name="u_12" index="193" value="28.00000"/>
  <variable name="u_13" index="194" value="34.00000"/>
 </variables>
</CPLEXSolution>
